p cnf 200 1110
-101 7 0
-101 -84 0
-101 8 0
-101 -22 0
-101 9 0
-101 35 0
-101 -94 0
-101 82 0
-101 18 0
-101 44 0
101 -7 84 -8 22 -9 -35 94 -82 -18 -44 0
-102 24 0
-102 -50 0
-102 30 0
-102 -45 0
-102 63 0
-102 82 0
-102 84 0
-102 81 0
-102 16 0
-102 -27 0
102 -24 50 -30 45 -63 -82 -84 -81 -16 27 0
-103 -44 0
-103 -61 0
-103 -90 0
-103 -27 0
-103 38 0
-103 75 0
-103 98 0
-103 -58 0
-103 -43 0
-103 25 0
103 44 61 90 27 -38 -75 -98 58 43 -25 0
-104 -50 0
-104 42 0
-104 2 0
-104 59 0
-104 29 0
-104 83 0
-104 41 0
-104 20 0
-104 8 0
-104 16 0
104 50 -42 -2 -59 -29 -83 -41 -20 -8 -16 0
-105 95 0
-105 80 0
-105 40 0
-105 72 0
-105 -16 0
-105 96 0
-105 -68 0
-105 57 0
-105 53 0
-105 -48 0
105 -95 -80 -40 -72 16 -96 68 -57 -53 48 0
-106 -35 0
-106 -80 0
-106 75 0
-106 -28 0
-106 -60 0
-106 74 0
-106 68 0
-106 87 0
-106 -20 0
-106 40 0
106 35 80 -75 28 60 -74 -68 -87 20 -40 0
-107 53 0
-107 -90 0
-107 -83 0
-107 -52 0
-107 88 0
-107 41 0
-107 -58 0
-107 81 0
-107 99 0
-107 12 0
107 -53 90 83 52 -88 -41 58 -81 -99 -12 0
-108 -78 0
-108 -62 0
-108 -94 0
-108 -39 0
-108 -91 0
-108 79 0
-108 -65 0
-108 -90 0
-108 29 0
-108 70 0
108 78 62 94 39 91 -79 65 90 -29 -70 0
-109 55 0
-109 -49 0
-109 -98 0
-109 95 0
-109 -20 0
-109 69 0
-109 -18 0
-109 52 0
-109 -28 0
-109 21 0
109 -55 49 98 -95 20 -69 18 -52 28 -21 0
-110 -93 0
-110 -24 0
-110 53 0
-110 26 0
-110 60 0
-110 19 0
-110 -40 0
-110 -94 0
-110 55 0
-110 -65 0
110 93 24 -53 -26 -60 -19 40 94 -55 65 0
101 102 103 104 105 106 107 108 109 110 0
-111 -61 0
-111 64 0
-111 50 0
-111 17 0
-111 2 0
-111 -29 0
-111 68 0
-111 97 0
-111 8 0
-111 49 0
111 61 -64 -50 -17 -2 29 -68 -97 -8 -49 0
-112 -99 0
-112 42 0
-112 73 0
-112 34 0
-112 26 0
-112 25 0
-112 -61 0
-112 88 0
-112 -97 0
-112 29 0
112 99 -42 -73 -34 -26 -25 61 -88 97 -29 0
-113 -39 0
-113 -18 0
-113 71 0
-113 33 0
-113 17 0
-113 -37 0
-113 95 0
-113 72 0
-113 51 0
-113 96 0
113 39 18 -71 -33 -17 37 -95 -72 -51 -96 0
-114 -85 0
-114 -93 0
-114 -75 0
-114 -92 0
-114 19 0
-114 3 0
-114 -71 0
-114 -17 0
-114 -5 0
-114 -1 0
114 85 93 75 92 -19 -3 71 17 5 1 0
-115 13 0
-115 -83 0
-115 87 0
-115 -5 0
-115 -89 0
-115 -70 0
-115 26 0
-115 -41 0
-115 23 0
-115 -62 0
115 -13 83 -87 5 89 70 -26 41 -23 62 0
-116 -47 0
-116 -85 0
-116 -34 0
-116 54 0
-116 38 0
-116 -86 0
-116 69 0
-116 -88 0
-116 -43 0
-116 74 0
116 47 85 34 -54 -38 86 -69 88 43 -74 0
-117 -25 0
-117 -11 0
-117 24 0
-117 29 0
-117 64 0
-117 -32 0
-117 -84 0
-117 -93 0
-117 7 0
-117 21 0
117 25 11 -24 -29 -64 32 84 93 -7 -21 0
-118 50 0
-118 -94 0
-118 -92 0
-118 72 0
-118 71 0
-118 66 0
-118 56 0
-118 -60 0
-118 -47 0
-118 25 0
118 -50 94 92 -72 -71 -66 -56 60 47 -25 0
-119 -54 0
-119 -42 0
-119 -64 0
-119 86 0
-119 -26 0
-119 -5 0
-119 68 0
-119 -76 0
-119 -55 0
-119 83 0
119 54 42 64 -86 26 5 -68 76 55 -83 0
-120 -31 0
-120 53 0
-120 -21 0
-120 9 0
-120 -71 0
-120 -58 0
-120 26 0
-120 -2 0
-120 30 0
-120 56 0
120 31 -53 21 -9 71 58 -26 2 -30 -56 0
111 112 113 114 115 116 117 118 119 120 0
-121 -97 0
-121 -48 0
-121 36 0
-121 -43 0
-121 -34 0
-121 41 0
-121 88 0
-121 71 0
-121 94 0
-121 -79 0
121 97 48 -36 43 34 -41 -88 -71 -94 79 0
-122 -13 0
-122 -67 0
-122 -69 0
-122 -12 0
-122 36 0
-122 -54 0
-122 9 0
-122 37 0
-122 45 0
-122 3 0
122 13 67 69 12 -36 54 -9 -37 -45 -3 0
-123 -64 0
-123 38 0
-123 -2 0
-123 17 0
-123 52 0
-123 22 0
-123 97 0
-123 92 0
-123 -65 0
-123 -75 0
123 64 -38 2 -17 -52 -22 -97 -92 65 75 0
-124 -81 0
-124 16 0
-124 -42 0
-124 87 0
-124 33 0
-124 -97 0
-124 -20 0
-124 -15 0
-124 -71 0
-124 -37 0
124 81 -16 42 -87 -33 97 20 15 71 37 0
-125 -65 0
-125 -12 0
-125 5 0
-125 99 0
-125 46 0
-125 -45 0
-125 -19 0
-125 59 0
-125 -9 0
-125 54 0
125 65 12 -5 -99 -46 45 19 -59 9 -54 0
-126 43 0
-126 19 0
-126 -23 0
-126 87 0
-126 -18 0
-126 88 0
-126 67 0
-126 -85 0
-126 -61 0
-126 70 0
126 -43 -19 23 -87 18 -88 -67 85 61 -70 0
-127 -24 0
-127 -3 0
-127 21 0
-127 -39 0
-127 6 0
-127 42 0
-127 90 0
-127 87 0
-127 45 0
-127 -96 0
127 24 3 -21 39 -6 -42 -90 -87 -45 96 0
-128 -5 0
-128 21 0
-128 83 0
-128 44 0
-128 -1 0
-128 -80 0
-128 74 0
-128 -29 0
-128 81 0
-128 -22 0
128 5 -21 -83 -44 1 80 -74 29 -81 22 0
-129 -24 0
-129 26 0
-129 36 0
-129 -61 0
-129 -89 0
-129 -88 0
-129 -59 0
-129 -4 0
-129 -55 0
-129 27 0
129 24 -26 -36 61 89 88 59 4 55 -27 0
-130 -34 0
-130 -73 0
-130 -29 0
-130 74 0
-130 10 0
-130 94 0
-130 11 0
-130 83 0
-130 -23 0
-130 -87 0
130 34 73 29 -74 -10 -94 -11 -83 23 87 0
121 122 123 124 125 126 127 128 129 130 0
-131 -81 0
-131 10 0
-131 -13 0
-131 -24 0
-131 1 0
-131 8 0
-131 -17 0
-131 -79 0
-131 33 0
-131 60 0
131 81 -10 13 24 -1 -8 17 79 -33 -60 0
-132 59 0
-132 66 0
-132 -35 0
-132 -93 0
-132 -6 0
-132 -14 0
-132 -72 0
-132 98 0
-132 88 0
-132 36 0
132 -59 -66 35 93 6 14 72 -98 -88 -36 0
-133 22 0
-133 -77 0
-133 -56 0
-133 85 0
-133 -62 0
-133 20 0
-133 -13 0
-133 99 0
-133 -8 0
-133 36 0
133 -22 77 56 -85 62 -20 13 -99 8 -36 0
-134 -9 0
-134 -6 0
-134 -34 0
-134 -50 0
-134 -67 0
-134 -23 0
-134 84 0
-134 -64 0
-134 -40 0
-134 -52 0
134 9 6 34 50 67 23 -84 64 40 52 0
-135 50 0
-135 85 0
-135 -81 0
-135 -77 0
-135 -83 0
-135 -5 0
-135 99 0
-135 -60 0
-135 -95 0
-135 -96 0
135 -50 -85 81 77 83 5 -99 60 95 96 0
-136 -61 0
-136 -30 0
-136 38 0
-136 -96 0
-136 42 0
-136 -19 0
-136 -51 0
-136 70 0
-136 -92 0
-136 29 0
136 61 30 -38 96 -42 19 51 -70 92 -29 0
-137 29 0
-137 57 0
-137 33 0
-137 -48 0
-137 1 0
-137 -69 0
-137 -32 0
-137 -51 0
-137 -41 0
-137 23 0
137 -29 -57 -33 48 -1 69 32 51 41 -23 0
-138 100 0
-138 62 0
-138 -85 0
-138 64 0
-138 40 0
-138 -70 0
-138 -38 0
-138 9 0
-138 57 0
-138 -75 0
138 -100 -62 85 -64 -40 70 38 -9 -57 75 0
-139 -41 0
-139 85 0
-139 -87 0
-139 72 0
-139 8 0
-139 39 0
-139 -19 0
-139 13 0
-139 53 0
-139 27 0
139 41 -85 87 -72 -8 -39 19 -13 -53 -27 0
-140 2 0
-140 -32 0
-140 -49 0
-140 -20 0
-140 56 0
-140 96 0
-140 58 0
-140 -76 0
-140 6 0
-140 -89 0
140 -2 32 49 20 -56 -96 -58 76 -6 89 0
131 132 133 134 135 136 137 138 139 140 0
-141 88 0
-141 -24 0
-141 -69 0
-141 68 0
-141 16 0
-141 -63 0
-141 -97 0
-141 86 0
-141 -100 0
-141 -76 0
141 -88 24 69 -68 -16 63 97 -86 100 76 0
-142 -2 0
-142 5 0
-142 61 0
-142 -60 0
-142 -72 0
-142 -58 0
-142 -4 0
-142 -88 0
-142 31 0
-142 -42 0
142 2 -5 -61 60 72 58 4 88 -31 42 0
-143 -96 0
-143 48 0
-143 -17 0
-143 52 0
-143 -78 0
-143 -45 0
-143 -74 0
-143 38 0
-143 50 0
-143 -10 0
143 96 -48 17 -52 78 45 74 -38 -50 10 0
-144 -18 0
-144 96 0
-144 100 0
-144 83 0
-144 -94 0
-144 -4 0
-144 -40 0
-144 -13 0
-144 6 0
-144 46 0
144 18 -96 -100 -83 94 4 40 13 -6 -46 0
-145 -40 0
-145 -59 0
-145 -56 0
-145 68 0
-145 -82 0
-145 -70 0
-145 35 0
-145 -79 0
-145 91 0
-145 -1 0
145 40 59 56 -68 82 70 -35 79 -91 1 0
-146 -16 0
-146 12 0
-146 -9 0
-146 89 0
-146 -53 0
-146 76 0
-146 -41 0
-146 -42 0
-146 -92 0
-146 60 0
146 16 -12 9 -89 53 -76 41 42 92 -60 0
-147 56 0
-147 63 0
-147 -27 0
-147 37 0
-147 86 0
-147 38 0
-147 7 0
-147 -48 0
-147 54 0
-147 -53 0
147 -56 -63 27 -37 -86 -38 -7 48 -54 53 0
-148 96 0
-148 -90 0
-148 47 0
-148 30 0
-148 82 0
-148 37 0
-148 -69 0
-148 55 0
-148 27 0
-148 57 0
148 -96 90 -47 -30 -82 -37 69 -55 -27 -57 0
-149 -36 0
-149 -77 0
-149 62 0
-149 27 0
-149 -43 0
-149 -73 0
-149 8 0
-149 13 0
-149 70 0
-149 -30 0
149 36 77 -62 -27 43 73 -8 -13 -70 30 0
-150 -22 0
-150 11 0
-150 21 0
-150 40 0
-150 5 0
-150 -19 0
-150 70 0
-150 48 0
-150 88 0
-150 94 0
150 22 -11 -21 -40 -5 19 -70 -48 -88 -94 0
141 142 143 144 145 146 147 148 149 150 0
-151 -6 0
-151 21 0
-151 38 0
-151 40 0
-151 95 0
-151 -67 0
-151 8 0
-151 35 0
-151 -99 0
-151 43 0
151 6 -21 -38 -40 -95 67 -8 -35 99 -43 0
-152 -94 0
-152 -75 0
-152 31 0
-152 -57 0
-152 -43 0
-152 -7 0
-152 -8 0
-152 -40 0
-152 100 0
-152 -11 0
152 94 75 -31 57 43 7 8 40 -100 11 0
-153 14 0
-153 85 0
-153 9 0
-153 -80 0
-153 -15 0
-153 -56 0
-153 -31 0
-153 -50 0
-153 76 0
-153 -57 0
153 -14 -85 -9 80 15 56 31 50 -76 57 0
-154 94 0
-154 -52 0
-154 -60 0
-154 -83 0
-154 99 0
-154 78 0
-154 82 0
-154 -24 0
-154 7 0
-154 34 0
154 -94 52 60 83 -99 -78 -82 24 -7 -34 0
-155 -70 0
-155 -34 0
-155 66 0
-155 19 0
-155 44 0
-155 -7 0
-155 -25 0
-155 -93 0
-155 4 0
-155 -2 0
155 70 34 -66 -19 -44 7 25 93 -4 2 0
-156 28 0
-156 22 0
-156 87 0
-156 -12 0
-156 -83 0
-156 -21 0
-156 -40 0
-156 43 0
-156 61 0
-156 15 0
156 -28 -22 -87 12 83 21 40 -43 -61 -15 0
-157 8 0
-157 97 0
-157 -55 0
-157 -52 0
-157 76 0
-157 -65 0
-157 -57 0
-157 -90 0
-157 70 0
-157 80 0
157 -8 -97 55 52 -76 65 57 90 -70 -80 0
-158 -53 0
-158 -98 0
-158 64 0
-158 -41 0
-158 -34 0
-158 68 0
-158 -95 0
-158 57 0
-158 90 0
-158 87 0
158 53 98 -64 41 34 -68 95 -57 -90 -87 0
-159 -13 0
-159 -71 0
-159 100 0
-159 -50 0
-159 55 0
-159 49 0
-159 -18 0
-159 64 0
-159 -15 0
-159 -89 0
159 13 71 -100 50 -55 -49 18 -64 15 89 0
-160 86 0
-160 -20 0
-160 -30 0
-160 -12 0
-160 41 0
-160 37 0
-160 -18 0
-160 -46 0
-160 -71 0
-160 67 0
160 -86 20 30 12 -41 -37 18 46 71 -67 0
151 152 153 154 155 156 157 158 159 160 0
-161 30 0
-161 -46 0
-161 -90 0
-161 -21 0
-161 94 0
-161 96 0
-161 -23 0
-161 31 0
-161 -17 0
-161 -18 0
161 -30 46 90 21 -94 -96 23 -31 17 18 0
-162 -61 0
-162 33 0
-162 59 0
-162 -19 0
-162 38 0
-162 -18 0
-162 -15 0
-162 12 0
-162 -48 0
-162 -30 0
162 61 -33 -59 19 -38 18 15 -12 48 30 0
-163 -61 0
-163 24 0
-163 89 0
-163 -45 0
-163 -100 0
-163 -41 0
-163 74 0
-163 30 0
-163 28 0
-163 -86 0
163 61 -24 -89 45 100 41 -74 -30 -28 86 0
-164 27 0
-164 -85 0
-164 32 0
-164 6 0
-164 -12 0
-164 100 0
-164 -33 0
-164 55 0
-164 99 0
-164 46 0
164 -27 85 -32 -6 12 -100 33 -55 -99 -46 0
-165 34 0
-165 96 0
-165 26 0
-165 38 0
-165 90 0
-165 -40 0
-165 65 0
-165 56 0
-165 52 0
-165 22 0
165 -34 -96 -26 -38 -90 40 -65 -56 -52 -22 0
-166 -6 0
-166 -87 0
-166 65 0
-166 31 0
-166 -91 0
-166 9 0
-166 -59 0
-166 -77 0
-166 -55 0
-166 -46 0
166 6 87 -65 -31 91 -9 59 77 55 46 0
-167 -16 0
-167 75 0
-167 44 0
-167 -32 0
-167 49 0
-167 94 0
-167 62 0
-167 35 0
-167 51 0
-167 5 0
167 16 -75 -44 32 -49 -94 -62 -35 -51 -5 0
-168 -58 0
-168 42 0
-168 64 0
-168 -29 0
-168 -32 0
-168 24 0
-168 -62 0
-168 -65 0
-168 1 0
-168 -76 0
168 58 -42 -64 29 32 -24 62 65 -1 76 0
-169 15 0
-169 87 0
-169 -80 0
-169 65 0
-169 -19 0
-169 -69 0
-169 84 0
-169 -26 0
-169 45 0
-169 -28 0
169 -15 -87 80 -65 19 69 -84 26 -45 28 0
-170 96 0
-170 -62 0
-170 -17 0
-170 15 0
-170 -10 0
-170 89 0
-170 27 0
-170 64 0
-170 36 0
-170 -12 0
170 -96 62 17 -15 10 -89 -27 -64 -36 12 0
161 162 163 164 165 166 167 168 169 170 0
-171 69 0
-171 91 0
-171 20 0
-171 67 0
-171 -83 0
-171 -51 0
-171 36 0
-171 40 0
-171 -30 0
-171 -35 0
171 -69 -91 -20 -67 83 51 -36 -40 30 35 0
-172 -36 0
-172 8 0
-172 -81 0
-172 1 0
-172 4 0
-172 -14 0
-172 79 0
-172 27 0
-172 88 0
-172 -72 0
172 36 -8 81 -1 -4 14 -79 -27 -88 72 0
-173 -8 0
-173 76 0
-173 -25 0
-173 97 0
-173 19 0
-173 -73 0
-173 20 0
-173 82 0
-173 36 0
-173 -4 0
173 8 -76 25 -97 -19 73 -20 -82 -36 4 0
-174 9 0
-174 -20 0
-174 31 0
-174 29 0
-174 -88 0
-174 -3 0
-174 35 0
-174 -91 0
-174 -43 0
-174 6 0
174 -9 20 -31 -29 88 3 -35 91 43 -6 0
-175 -52 0
-175 67 0
-175 -21 0
-175 84 0
-175 97 0
-175 -29 0
-175 -51 0
-175 -63 0
-175 -46 0
-175 -68 0
175 52 -67 21 -84 -97 29 51 63 46 68 0
-176 -95 0
-176 92 0
-176 -51 0
-176 -62 0
-176 -52 0
-176 97 0
-176 -90 0
-176 -89 0
-176 59 0
-176 34 0
176 95 -92 51 62 52 -97 90 89 -59 -34 0
-177 -48 0
-177 -66 0
-177 -64 0
-177 -36 0
-177 96 0
-177 -37 0
-177 81 0
-177 -28 0
-177 -57 0
-177 -35 0
177 48 66 64 36 -96 37 -81 28 57 35 0
-178 -97 0
-178 40 0
-178 -72 0
-178 10 0
-178 -30 0
-178 -56 0
-178 64 0
-178 -32 0
-178 -7 0
-178 74 0
178 97 -40 72 -10 30 56 -64 32 7 -74 0
-179 40 0
-179 20 0
-179 22 0
-179 -2 0
-179 44 0
-179 71 0
-179 94 0
-179 -98 0
-179 35 0
-179 -55 0
179 -40 -20 -22 2 -44 -71 -94 98 -35 55 0
-180 62 0
-180 6 0
-180 13 0
-180 15 0
-180 68 0
-180 17 0
-180 -47 0
-180 41 0
-180 -14 0
-180 -86 0
180 -62 -6 -13 -15 -68 -17 47 -41 14 86 0
171 172 173 174 175 176 177 178 179 180 0
-181 -58 0
-181 -59 0
-181 33 0
-181 49 0
-181 95 0
-181 79 0
-181 2 0
-181 -96 0
-181 36 0
-181 50 0
181 58 59 -33 -49 -95 -79 -2 96 -36 -50 0
-182 -63 0
-182 -89 0
-182 -42 0
-182 -39 0
-182 -21 0
-182 48 0
-182 4 0
-182 18 0
-182 14 0
-182 -51 0
182 63 89 42 39 21 -48 -4 -18 -14 51 0
-183 13 0
-183 -8 0
-183 73 0
-183 78 0
-183 93 0
-183 -64 0
-183 -71 0
-183 63 0
-183 -4 0
-183 -3 0
183 -13 8 -73 -78 -93 64 71 -63 4 3 0
-184 13 0
-184 -35 0
-184 61 0
-184 -57 0
-184 -87 0
-184 3 0
-184 84 0
-184 37 0
-184 -34 0
-184 100 0
184 -13 35 -61 57 87 -3 -84 -37 34 -100 0
-185 48 0
-185 -100 0
-185 -97 0
-185 31 0
-185 -17 0
-185 9 0
-185 -15 0
-185 73 0
-185 22 0
-185 -66 0
185 -48 100 97 -31 17 -9 15 -73 -22 66 0
-186 -43 0
-186 -28 0
-186 67 0
-186 -29 0
-186 91 0
-186 -23 0
-186 -84 0
-186 88 0
-186 -66 0
-186 -49 0
186 43 28 -67 29 -91 23 84 -88 66 49 0
-187 -40 0
-187 -53 0
-187 -45 0
-187 77 0
-187 34 0
-187 -74 0
-187 -52 0
-187 -59 0
-187 -27 0
-187 -89 0
187 40 53 45 -77 -34 74 52 59 27 89 0
-188 86 0
-188 -78 0
-188 -30 0
-188 -52 0
-188 76 0
-188 -7 0
-188 -90 0
-188 6 0
-188 -85 0
-188 44 0
188 -86 78 30 52 -76 7 90 -6 85 -44 0
-189 78 0
-189 -88 0
-189 33 0
-189 46 0
-189 92 0
-189 -69 0
-189 -97 0
-189 -5 0
-189 81 0
-189 86 0
189 -78 88 -33 -46 -92 69 97 5 -81 -86 0
-190 -85 0
-190 15 0
-190 90 0
-190 9 0
-190 -17 0
-190 1 0
-190 -22 0
-190 -25 0
-190 -94 0
-190 56 0
190 85 -15 -90 -9 17 -1 22 25 94 -56 0
181 182 183 184 185 186 187 188 189 190 0
-191 -85 0
-191 61 0
-191 -36 0
-191 -40 0
-191 -16 0
-191 -1 0
-191 -92 0
-191 17 0
-191 -27 0
-191 -8 0
191 85 -61 36 40 16 1 92 -17 27 8 0
-192 22 0
-192 -37 0
-192 -25 0
-192 -48 0
-192 -33 0
-192 -45 0
-192 -41 0
-192 27 0
-192 -3 0
-192 -30 0
192 -22 37 25 48 33 45 41 -27 3 30 0
-193 63 0
-193 -80 0
-193 64 0
-193 6 0
-193 -71 0
-193 -87 0
-193 60 0
-193 9 0
-193 -16 0
-193 43 0
193 -63 80 -64 -6 71 87 -60 -9 16 -43 0
-194 -69 0
-194 -36 0
-194 54 0
-194 -71 0
-194 -23 0
-194 -14 0
-194 9 0
-194 76 0
-194 -42 0
-194 -33 0
194 69 36 -54 71 23 14 -9 -76 42 33 0
-195 -15 0
-195 -56 0
-195 39 0
-195 41 0
-195 25 0
-195 -34 0
-195 75 0
-195 -80 0
-195 -9 0
-195 67 0
195 15 56 -39 -41 -25 34 -75 80 9 -67 0
-196 69 0
-196 66 0
-196 61 0
-196 -86 0
-196 60 0
-196 -43 0
-196 14 0
-196 56 0
-196 18 0
-196 59 0
196 -69 -66 -61 86 -60 43 -14 -56 -18 -59 0
-197 62 0
-197 57 0
-197 -9 0
-197 45 0
-197 -54 0
-197 -60 0
-197 -22 0
-197 -24 0
-197 48 0
-197 10 0
197 -62 -57 9 -45 54 60 22 24 -48 -10 0
-198 -64 0
-198 -15 0
-198 -73 0
-198 23 0
-198 61 0
-198 74 0
-198 31 0
-198 39 0
-198 -85 0
-198 -41 0
198 64 15 73 -23 -61 -74 -31 -39 85 41 0
-199 60 0
-199 -74 0
-199 -72 0
-199 -28 0
-199 -9 0
-199 80 0
-199 8 0
-199 69 0
-199 -31 0
-199 -25 0
199 -60 74 72 28 9 -80 -8 -69 31 25 0
-200 -32 0
-200 51 0
-200 85 0
-200 -49 0
-200 -45 0
-200 -62 0
-200 -20 0
-200 69 0
-200 -68 0
-200 -12 0
200 32 -51 -85 49 45 62 20 -69 68 12 0
191 192 193 194 195 196 197 198 199 200 0
